c IDP Project of Reza Sefidgar at Chair M9 of Technische Universität München.2014 
c https://www-m9.ma.tum.de/graph-algorithms/mst-prim/index_en.html
c jabodetabek stations 
c
p sp 80 160
c graph contains 80 nodes and 160 arcs
c
a 1 2 1609
a 2 1 1609
a 2 3 2000
a 3 2 2000
a 3 4 1800
a 4 3 1800
a 4 5 2548
a 5 4 2548
a 5 6 2504
a 6 5 2504
a 6 7 1152
a 7 6 1152
a 7 8 2434
a 8 7 2434
a 8 9 1514
a 9 8 1514
a 9 10 2036
a 10 9 2036
a 10 11 1700
a 11 10 1700
a 11 12 1230
a 12 11 1230
a 12 13 4102
a 13 12 4102
a 13 14 2185
a 14 13 2185
a 14 15 4566
a 15 14 4566
a 15 16 8195
a 16 15 8195
a 16 17 1901
a 17 16 1901
a 17 18 1436
a 18 17 1436
a 18 19 1567
a 19 18 1567
a 19 20 973
a 20 19 973
a 20 21 1829
a 21 20 1829
a 21 22 1236
a 22 21 1236
a 22 23 1697
a 23 22 1697
a 23 24 1697
a 24 23 1697
a 24 25 3100
a 25 24 3100
a 25 26 1305
a 26 25 1305
a 26 27 1385
a 27 26 1385
a 27 28 3097
a 28 27 3097
a 28 29 2520
a 29 28 2520
a 22 30 2652
a 30 22 2652
a 30 31 2610
a 31 30 2610
a 31 32 1301
a 32 31 1301
a 32 33 1475
a 33 32 1475
a 33 34 1509
a 34 33 1509
a 34 35 1695
a 35 34 1695
a 35 36 3031
a 36 35 3031
a 36 37 2460
a 37 36 2460
a 37 38 1029
a 38 37 1029
a 38 39 2264
a 39 38 2264
a 39 40 1109
a 40 39 1109
a 40 41 2570
a 41 40 2570
a 41 42 1741
a 42 41 1741
a 42 43 5084
a 43 42 5084
a 43 44 3805
a 44 43 3805
a 44 45 2935
a 45 44 2935
a 45 46 4300
a 46 45 4300
a 46 47 2227
a 47 46 2227
a 43 48 5197
a 48 43 5197
a 48 49 4331
a 49 48 4331
a 49 50 7518
a 50 49 7518
a 30 51 1593
a 51 30 1593
a 51 52 1593
a 52 51 1593
a 52 53 811
a 53 52 811
a 53 54 2029
a 54 53 2029
a 54 55 3191
a 55 54 3191
a 55 56 3737
a 56 55 3737
a 56 57 6218
a 57 56 6218
a 57 58 2179
a 58 57 2179
a 58 59 1974
a 59 58 1974
a 59 60 4566
a 60 59 4566
a 60 61 2413
a 61 60 2413
a 61 62 1784
a 62 61 1784
a 62 63 2519
a 63 62 2519
a 63 64 5968
a 64 63 5968
a 64 65 7025
a 65 64 7025
a 65 66 2675
a 66 65 2675
a 66 67 3902
a 67 66 3902
a 67 68 2974
a 68 67 2974
a 68 69 2651
a 69 68 2651
a 69 70 1853
a 70 69 1853
a 70 71 7293
a 71 70 7293
a 71 72 9847
a 72 71 9847
a 54 11 3632
a 11 54 3632
a 30 73 1606
a 73 30 1606
a 73 74 1699
a 74 73 1699
a 74 75 1099
a 75 74 1099
a 75 76 1099
a 76 75 1099
a 76 77 707
a 77 76 707
a 77 78 1171
a 78 77 1171
a 78 79 1020
a 79 78 1020
a 79 80 1487
a 80 79 1487
a 80 13 1364
a 13 80 1364